NAME          
ROWS
 N  OBJ
 L  c1
 L  c2
COLUMNS
    MARKER    'MARKER'                 'INTORG'
    x[1]      c1        246
    x[1]      c2        738
    x[1]      OBJ       -296
    x[2]      c1        943
    x[2]      c2        299
    x[2]      OBJ       -613
    x[3]      c1        111
    x[3]      c2        938
    x[3]      OBJ       -851
    x[4]      c1        248
    x[4]      c2        520
    x[4]      OBJ       -565
    x[5]      c1        199
    x[5]      c2        491
    x[5]      OBJ       -957
    x[6]      c1        863
    x[6]      c2        393
    x[6]      OBJ       -546
    x[7]      c1        422
    x[7]      c2        911
    x[7]      OBJ       -426
    x[8]      c1        810
    x[8]      c2        949
    x[8]      OBJ       -762
    x[9]      c1        196
    x[9]      c2        7
    x[9]      OBJ       -619
    x[10]     c1        275
    x[10]     c2        666
    x[10]     OBJ       -678
RHS
    rhs       c1        2156
    rhs       c2        2956
RANGES
BOUNDS
 LO bounds    x[1]      0
 PL bounds    x[1]
 LO bounds    x[2]      0
 PL bounds    x[2]
 LO bounds    x[3]      0
 PL bounds    x[3]
 LO bounds    x[4]      0
 PL bounds    x[4]
 LO bounds    x[5]      0
 PL bounds    x[5]
 LO bounds    x[6]      0
 PL bounds    x[6]
 LO bounds    x[7]      0
 PL bounds    x[7]
 LO bounds    x[8]      0
 PL bounds    x[8]
 LO bounds    x[9]      0
 PL bounds    x[9]
 LO bounds    x[10]     0
 PL bounds    x[10]
ENDATA
